
Gurobi 9.1.2 (win64, Java) logging started Fri Nov 12 00:55:36 2021

Academic license - for non-commercial use only - expires 2022-10-30
Gurobi Optimizer version 9.1.2 build v9.1.2rc0 (win64)
Thread count: 6 physical cores, 12 logical processors, using up to 12 threads
Optimize a model with 30 rows, 200 columns and 400 nonzeros
Model fingerprint: 0xc0b5465f
Variable types: 0 continuous, 200 integer (200 binary)
Coefficient statistics:
  Matrix range     [1e+00, 1e+03]
  Objective range  [1e+02, 9e+02]
  Bounds range     [1e+00, 1e+00]
  RHS range        [1e+00, 1e+03]
Found heuristic solution: objective 5046.0000000
Presolve removed 2 rows and 106 columns
Presolve time: 0.00s
Presolved: 28 rows, 94 columns, 188 nonzeros
Variable types: 0 continuous, 94 integer (94 binary)
Presolved: 28 rows, 94 columns, 188 nonzeros


Root relaxation: objective 5.952226e+03, 38 iterations, 0.00 seconds

    Nodes    |    Current Node    |     Objective Bounds      |     Work
 Expl Unexpl |  Obj  Depth IntInf | Incumbent    BestBd   Gap | It/Node Time

     0     0 5952.22601    0    8 5046.00000 5952.22601  18.0%     -    0s
H    0     0                    5476.0000000 5952.22601  8.70%     -    0s
     0     0 5877.11844    0   15 5476.00000 5877.11844  7.33%     -    0s
H    0     0                    5626.0000000 5877.11844  4.46%     -    0s
     0     0 5859.30022    0   18 5626.00000 5859.30022  4.15%     -    0s
     0     0 5859.30022    0   18 5626.00000 5859.30022  4.15%     -    0s
     0     0 5858.57824    0   21 5626.00000 5858.57824  4.13%     -    0s
     0     0 5852.40061    0   22 5626.00000 5852.40061  4.02%     -    0s
     0     0 5778.70766    0   15 5626.00000 5778.70766  2.71%     -    0s
     0     0 5778.70766    0   15 5626.00000 5778.70766  2.71%     -    0s
     0     0 5759.15076    0   18 5626.00000 5759.15076  2.37%     -    0s
     0     0 5758.90073    0   20 5626.00000 5758.90073  2.36%     -    0s
     0     0 5753.39012    0   20 5626.00000 5753.39012  2.26%     -    0s
     0     0 5744.73327    0   26 5626.00000 5744.73327  2.11%     -    0s
     0     0 5701.91615    0   24 5626.00000 5701.91615  1.35%     -    0s
     0     0 5701.84180    0   24 5626.00000 5701.84180  1.35%     -    0s
     0     0 5692.06893    0   22 5626.00000 5692.06893  1.17%     -    0s
     0     0 5692.06893    0    7 5626.00000 5692.06893  1.17%     -    0s
     0     0     cutoff    0      5626.00000 5626.00000  0.00%     -    0s

Cutting planes:
  Gomory: 3
  Cover: 4
  MIR: 5
  StrongCG: 3
  RLT: 1

Explored 1 nodes (214 simplex iterations) in 0.23 seconds
Thread count was 12 (of 12 available processors)

Solution count 3: 5626 5476 5046 

Optimal solution found (tolerance 1.00e-12)
Best objective 5.626000000000e+03, best bound 5.626000000000e+03, gap 0.0000%
